\Generated by Cardinal Operations

Maximize
   50 x_0_0 + 50 x_0_1 + 50 x_0_2 + 50 x_0_3 + 50 x_0_4 + 50 x_0_5 
   + 50 x_0_6 + 50 x_0_7 + 50 x_0_8 + 50 x_0_9 + 70 x_1_0 + 70 x_1_1 
   + 70 x_1_2 + 70 x_1_3 + 70 x_1_4 + 70 x_1_5 + 70 x_1_6 + 70 x_1_7 
   + 70 x_1_8 + 70 x_1_9 + 30 x_2_0 + 30 x_2_1 + 30 x_2_2 + 30 x_2_3 
   + 30 x_2_4 + 30 x_2_5 + 30 x_2_6 + 30 x_2_7 + 30 x_2_8 + 30 x_2_9 
   + 60 x_3_0 + 60 x_3_1 + 60 x_3_2 + 60 x_3_3 + 60 x_3_4 + 60 x_3_5 
   + 60 x_3_6 + 60 x_3_7 + 60 x_3_8 + 60 x_3_9 + 80 x_4_0 + 80 x_4_1 
   + 80 x_4_2 + 80 x_4_3 + 80 x_4_4 + 80 x_4_5 + 80 x_4_6 + 80 x_4_7 
   + 80 x_4_8 + 80 x_4_9 + 90 x_5_0 + 90 x_5_1 + 90 x_5_2 + 90 x_5_3 
   + 90 x_5_4 + 90 x_5_5 + 90 x_5_6 + 90 x_5_7 + 90 x_5_8 + 90 x_5_9 
   + 40 x_6_0 + 40 x_6_1 + 40 x_6_2 + 40 x_6_3 + 40 x_6_4 + 40 x_6_5 
   + 40 x_6_6 + 40 x_6_7 + 40 x_6_8 + 40 x_6_9 + 100 x_7_0 + 100 x_7_1 
   + 100 x_7_2 + 100 x_7_3 + 100 x_7_4 + 100 x_7_5 + 100 x_7_6 + 100 x_7_7 
   + 100 x_7_8 + 100 x_7_9 + 55 x_8_0 + 55 x_8_1 + 55 x_8_2 + 55 x_8_3 
   + 55 x_8_4 + 55 x_8_5 + 55 x_8_6 + 55 x_8_7 + 55 x_8_8 + 55 x_8_9 
   + 75 x_9_0 + 75 x_9_1 + 75 x_9_2 + 75 x_9_3 + 75 x_9_4 + 75 x_9_5 
   + 75 x_9_6 + 75 x_9_7 + 75 x_9_8 + 75 x_9_9 + 65 x_10_0 + 65 x_10_1 
   + 65 x_10_2 + 65 x_10_3 + 65 x_10_4 + 65 x_10_5 + 65 x_10_6 + 65 x_10_7 
   + 65 x_10_8 + 65 x_10_9 + 95 x_11_0 + 95 x_11_1 + 95 x_11_2 + 95 x_11_3 
   + 95 x_11_4 + 95 x_11_5 + 95 x_11_6 + 95 x_11_7 + 95 x_11_8 + 95 x_11_9 
   + 45 x_12_0 + 45 x_12_1 + 45 x_12_2 + 45 x_12_3 + 45 x_12_4 + 45 x_12_5 
   + 45 x_12_6 + 45 x_12_7 + 45 x_12_8 + 45 x_12_9 + 85 x_13_0 + 85 x_13_1 
   + 85 x_13_2 + 85 x_13_3 + 85 x_13_4 + 85 x_13_5 + 85 x_13_6 + 85 x_13_7 
   + 85 x_13_8 + 85 x_13_9 + 70 x_14_0 + 70 x_14_1 + 70 x_14_2 + 70 x_14_3 
   + 70 x_14_4 + 70 x_14_5 + 70 x_14_6 + 70 x_14_7 + 70 x_14_8 + 70 x_14_9 
   + 110 x_15_0 + 110 x_15_1 + 110 x_15_2 + 110 x_15_3 + 110 x_15_4 
   + 110 x_15_5 + 110 x_15_6 + 110 x_15_7 + 110 x_15_8 + 110 x_15_9 
   + 50 x_16_0 + 50 x_16_1 + 50 x_16_2 + 50 x_16_3 + 50 x_16_4 + 50 x_16_5 
   + 50 x_16_6 + 50 x_16_7 + 50 x_16_8 + 50 x_16_9 + 60 x_17_0 + 60 x_17_1 
   + 60 x_17_2 + 60 x_17_3 + 60 x_17_4 + 60 x_17_5 + 60 x_17_6 + 60 x_17_7 
   + 60 x_17_8 + 60 x_17_9 + 120 x_18_0 + 120 x_18_1 + 120 x_18_2 
   + 120 x_18_3 + 120 x_18_4 + 120 x_18_5 + 120 x_18_6 + 120 x_18_7 
   + 120 x_18_8 + 120 x_18_9 + 100 x_19_0 + 100 x_19_1 + 100 x_19_2 
   + 100 x_19_3 + 100 x_19_4 + 100 x_19_5 + 100 x_19_6 + 100 x_19_7 
   + 100 x_19_8 + 100 x_19_9 
Subject To
 capacity_constraint: 10 x_0_0 + 20 x_1_0 + 5 x_2_0 + 15 x_3_0 + 25 x_4_0 
   + 30 x_5_0 + 12 x_6_0 + 35 x_7_0 + 10 x_8_0 + 20 x_9_0 + 18 x_10_0 
   + 28 x_11_0 + 8 x_12_0 + 22 x_13_0 + 25 x_14_0 + 40 x_15_0 + 14 x_16_0 
   + 16 x_17_0 + 50 x_18_0 + 30 x_19_0 <= 500
 10 x_0_1 + 20 x_1_1 + 5 x_2_1 + 15 x_3_1 + 25 x_4_1 + 30 x_5_1 + 12 x_6_1 
   + 35 x_7_1 + 10 x_8_1 + 20 x_9_1 + 18 x_10_1 + 28 x_11_1 + 8 x_12_1 
   + 22 x_13_1 + 25 x_14_1 + 40 x_15_1 + 14 x_16_1 + 16 x_17_1 + 50 x_18_1 
   + 30 x_19_1 <= 700
 10 x_0_2 + 20 x_1_2 + 5 x_2_2 + 15 x_3_2 + 25 x_4_2 + 30 x_5_2 + 12 x_6_2 
   + 35 x_7_2 + 10 x_8_2 + 20 x_9_2 + 18 x_10_2 + 28 x_11_2 + 8 x_12_2 
   + 22 x_13_2 + 25 x_14_2 + 40 x_15_2 + 14 x_16_2 + 16 x_17_2 + 50 x_18_2 
   + 30 x_19_2 <= 600
 10 x_0_3 + 20 x_1_3 + 5 x_2_3 + 15 x_3_3 + 25 x_4_3 + 30 x_5_3 + 12 x_6_3 
   + 35 x_7_3 + 10 x_8_3 + 20 x_9_3 + 18 x_10_3 + 28 x_11_3 + 8 x_12_3 
   + 22 x_13_3 + 25 x_14_3 + 40 x_15_3 + 14 x_16_3 + 16 x_17_3 + 50 x_18_3 
   + 30 x_19_3 <= 800
 10 x_0_4 + 20 x_1_4 + 5 x_2_4 + 15 x_3_4 + 25 x_4_4 + 30 x_5_4 + 12 x_6_4 
   + 35 x_7_4 + 10 x_8_4 + 20 x_9_4 + 18 x_10_4 + 28 x_11_4 + 8 x_12_4 
   + 22 x_13_4 + 25 x_14_4 + 40 x_15_4 + 14 x_16_4 + 16 x_17_4 + 50 x_18_4 
   + 30 x_19_4 <= 550
 10 x_0_5 + 20 x_1_5 + 5 x_2_5 + 15 x_3_5 + 25 x_4_5 + 30 x_5_5 + 12 x_6_5 
   + 35 x_7_5 + 10 x_8_5 + 20 x_9_5 + 18 x_10_5 + 28 x_11_5 + 8 x_12_5 
   + 22 x_13_5 + 25 x_14_5 + 40 x_15_5 + 14 x_16_5 + 16 x_17_5 + 50 x_18_5 
   + 30 x_19_5 <= 900
 10 x_0_6 + 20 x_1_6 + 5 x_2_6 + 15 x_3_6 + 25 x_4_6 + 30 x_5_6 + 12 x_6_6 
   + 35 x_7_6 + 10 x_8_6 + 20 x_9_6 + 18 x_10_6 + 28 x_11_6 + 8 x_12_6 
   + 22 x_13_6 + 25 x_14_6 + 40 x_15_6 + 14 x_16_6 + 16 x_17_6 + 50 x_18_6 
   + 30 x_19_6 <= 650
 10 x_0_7 + 20 x_1_7 + 5 x_2_7 + 15 x_3_7 + 25 x_4_7 + 30 x_5_7 + 12 x_6_7 
   + 35 x_7_7 + 10 x_8_7 + 20 x_9_7 + 18 x_10_7 + 28 x_11_7 + 8 x_12_7 
   + 22 x_13_7 + 25 x_14_7 + 40 x_15_7 + 14 x_16_7 + 16 x_17_7 + 50 x_18_7 
   + 30 x_19_7 <= 750
 10 x_0_8 + 20 x_1_8 + 5 x_2_8 + 15 x_3_8 + 25 x_4_8 + 30 x_5_8 + 12 x_6_8 
   + 35 x_7_8 + 10 x_8_8 + 20 x_9_8 + 18 x_10_8 + 28 x_11_8 + 8 x_12_8 
   + 22 x_13_8 + 25 x_14_8 + 40 x_15_8 + 14 x_16_8 + 16 x_17_8 + 50 x_18_8 
   + 30 x_19_8 <= 820
 10 x_0_9 + 20 x_1_9 + 5 x_2_9 + 15 x_3_9 + 25 x_4_9 + 30 x_5_9 + 12 x_6_9 
   + 35 x_7_9 + 10 x_8_9 + 20 x_9_9 + 18 x_10_9 + 28 x_11_9 + 8 x_12_9 
   + 22 x_13_9 + 25 x_14_9 + 40 x_15_9 + 14 x_16_9 + 16 x_17_9 + 50 x_18_9 
   + 30 x_19_9 <= 570
Generals
 x_0_0  x_0_1  x_0_2  x_0_3  x_0_4  x_0_5  x_0_6  x_0_7  x_0_8  x_0_9  
 x_1_0  x_1_1  x_1_2  x_1_3  x_1_4  x_1_5  x_1_6  x_1_7  x_1_8  x_1_9  
 x_2_0  x_2_1  x_2_2  x_2_3  x_2_4  x_2_5  x_2_6  x_2_7  x_2_8  x_2_9  
 x_3_0  x_3_1  x_3_2  x_3_3  x_3_4  x_3_5  x_3_6  x_3_7  x_3_8  x_3_9  
 x_4_0  x_4_1  x_4_2  x_4_3  x_4_4  x_4_5  x_4_6  x_4_7  x_4_8  x_4_9  
 x_5_0  x_5_1  x_5_2  x_5_3  x_5_4  x_5_5  x_5_6  x_5_7  x_5_8  x_5_9  
 x_6_0  x_6_1  x_6_2  x_6_3  x_6_4  x_6_5  x_6_6  x_6_7  x_6_8  x_6_9  
 x_7_0  x_7_1  x_7_2  x_7_3  x_7_4  x_7_5  x_7_6  x_7_7  x_7_8  x_7_9  
 x_8_0  x_8_1  x_8_2  x_8_3  x_8_4  x_8_5  x_8_6  x_8_7  x_8_8  x_8_9  
 x_9_0  x_9_1  x_9_2  x_9_3  x_9_4  x_9_5  x_9_6  x_9_7  x_9_8  x_9_9  
 x_10_0  x_10_1  x_10_2  x_10_3  x_10_4  x_10_5  x_10_6  x_10_7  x_10_8  
 x_10_9  x_11_0  x_11_1  x_11_2  x_11_3  x_11_4  x_11_5  x_11_6  x_11_7  
 x_11_8  x_11_9  x_12_0  x_12_1  x_12_2  x_12_3  x_12_4  x_12_5  x_12_6  
 x_12_7  x_12_8  x_12_9  x_13_0  x_13_1  x_13_2  x_13_3  x_13_4  x_13_5  
 x_13_6  x_13_7  x_13_8  x_13_9  x_14_0  x_14_1  x_14_2  x_14_3  x_14_4  
 x_14_5  x_14_6  x_14_7  x_14_8  x_14_9  x_15_0  x_15_1  x_15_2  x_15_3  
 x_15_4  x_15_5  x_15_6  x_15_7  x_15_8  x_15_9  x_16_0  x_16_1  x_16_2  
 x_16_3  x_16_4  x_16_5  x_16_6  x_16_7  x_16_8  x_16_9  x_17_0  x_17_1  
 x_17_2  x_17_3  x_17_4  x_17_5  x_17_6  x_17_7  x_17_8  x_17_9  x_18_0  
 x_18_1  x_18_2  x_18_3  x_18_4  x_18_5  x_18_6  x_18_7  x_18_8  x_18_9  
 x_19_0  x_19_1  x_19_2  x_19_3  x_19_4  x_19_5  x_19_6  x_19_7  x_19_8  
 x_19_9  
END

